p wcnf 120 1200
9 -118 -120 0
2 -116 -117 0
4 -114 115 0
2 -112 -114 0
1 -112 113 0
1 -111 -115 0
7 -109 113 0
6 -107 -114 0
8 -107 -110 0
6 -107 109 0
4 -106 -111 0
8 -106 115 0
5 -106 117 0
4 -105 111 0
4 -105 114 0
1 -105 117 0
4 -104 -111 0
4 -104 114 0
5 -103 108 0
6 -101 -114 0
3 -101 -110 0
1 -101 108 0
8 -101 117 0
4 -100 111 0
7 -99 -100 0
6 -98 117 0
4 -97 -110 0
8 -97 -109 0
7 -97 108 0
7 -97 116 0
4 -96 -113 0
5 -94 100 0
9 -94 102 0
7 -93 95 0
7 -93 113 0
9 -93 120 0
7 -92 -93 0
4 -91 -92 0
5 -91 106 0
5 -90 -110 0
9 -90 109 0
7 -89 90 0
3 -89 99 0
4 -89 119 0
2 -88 -110 0
6 -88 99 0
4 -88 100 0
4 -87 -113 0
9 -87 -108 0
8 -87 -94 0
9 -87 106 0
2 -86 -115 0
8 -86 95 0
7 -86 106 0
5 -85 -107 0
5 -85 -102 0
3 -85 115 0
9 -84 -115 0
3 -84 -112 0
8 -84 103 0
6 -84 105 0
6 -84 116 0
4 -83 -97 0
5 -83 111 0
3 -83 117 0
10 -82 -95 0
4 -82 108 0
9 -81 -101 0
4 -81 103 0
8 -80 -107 0
3 -80 -99 0
3 -80 113 0
5 -80 119 0
5 -79 -115 0
6 -78 -85 0
6 -77 -106 0
10 -77 -103 0
9 -77 98 0
9 -77 102 0
9 -77 104 0
7 -77 110 0
8 -77 113 0
10 -77 115 0
5 -77 118 0
5 -76 -120 0
5 -76 -86 0
9 -76 77 0
7 -76 88 0
4 -76 98 0
3 -76 120 0
5 -75 -119 0
9 -75 -117 0
8 -75 -114 0
8 -75 -104 0
4 -75 -100 0
1 -75 88 0
8 -74 -113 0
7 -74 -103 0
9 -73 -85 0
1 -73 -82 0
5 -73 80 0
2 -73 91 0
3 -73 102 0
10 -73 114 0
6 -72 -117 0
8 -72 -95 0
6 -72 101 0
6 -71 -76 0
6 -71 75 0
5 -71 105 0
5 -71 115 0
3 -70 -81 0
4 -70 96 0
4 -70 107 0
7 -68 -114 0
8 -68 -80 0
8 -68 92 0
6 -68 119 0
4 -67 -97 0
2 -67 -73 0
8 -66 -90 0
8 -66 69 0
1 -65 72 0
6 -65 108 0
6 -65 117 0
4 -65 119 0
6 -64 -87 0
4 -64 -85 0
1 -64 72 0
4 -64 100 0
5 -63 -120 0
5 -63 -105 0
5 -63 -82 0
7 -63 92 0
5 -63 101 0
1 -62 -117 0
5 -62 -88 0
1 -62 71 0
6 -61 -95 0
10 -61 -83 0
5 -61 67 0
10 -60 -98 0
3 -60 -92 0
8 -60 -66 0
4 -60 -64 0
8 -60 -62 0
6 -60 87 0
3 -60 109 0
4 -60 120 0
9 -59 -79 0
4 -59 116 0
2 -58 80 0
7 -58 91 0
4 -57 -106 0
6 -57 -96 0
3 -57 -87 0
7 -57 -66 0
2 -57 -61 0
7 -57 72 0
7 -57 82 0
5 -57 112 0
1 -56 -87 0
2 -56 81 0
9 -56 84 0
7 -56 91 0
7 -56 100 0
9 -56 111 0
1 -55 -115 0
7 -55 -89 0
5 -55 61 0
1 -55 117 0
2 -54 -120 0
5 -54 -68 0
3 -54 -58 0
9 -54 66 0
8 -54 75 0
10 -54 80 0
5 -53 -83 0
10 -53 57 0
4 -53 80 0
3 -53 84 0
3 -53 97 0
5 -53 119 0
9 -52 -119 0
6 -52 -116 0
10 -52 -106 0
3 -52 -57 0
3 -52 -53 0
2 -52 85 0
8 -52 94 0
9 -51 -103 0
6 -51 -84 0
8 -51 61 0
1 -51 65 0
5 -51 80 0
5 -51 111 0
7 -50 -83 0
4 -50 -80 0
6 -50 -70 0
3 -50 -66 0
9 -50 51 0
6 -50 59 0
4 -50 89 0
4 -49 -119 0
8 -49 -108 0
3 -49 -89 0
2 -49 -85 0
8 -49 -60 0
7 -49 93 0
2 -49 112 0
2 -48 -119 0
9 -48 -118 0
4 -48 -98 0
5 -48 -82 0
8 -48 -64 0
9 -48 63 0
5 -48 88 0
10 -48 114 0
2 -47 -119 0
6 -47 -118 0
8 -47 -97 0
10 -47 -93 0
2 -47 81 0
7 -47 85 0
10 -47 90 0
6 -46 -109 0
2 -46 -93 0
6 -46 -77 0
9 -46 -67 0
6 -46 66 0
9 -46 89 0
8 -46 96 0
2 -45 -118 0
3 -45 -94 0
1 -45 -79 0
9 -45 48 0
5 -45 102 0
3 -45 107 0
7 -45 111 0
2 -45 119 0
3 -44 -119 0
7 -44 -95 0
10 -44 -63 0
7 -44 50 0
3 -44 51 0
8 -44 56 0
6 -44 96 0
7 -44 105 0
8 -44 113 0
7 -43 -57 0
3 -43 100 0
6 -42 -115 0
7 -42 -59 0
4 -42 48 0
3 -42 71 0
7 -42 74 0
9 -42 89 0
3 -42 97 0
4 -41 -118 0
8 -41 -75 0
9 -41 -56 0
2 -41 68 0
6 -41 84 0
1 -41 87 0
4 -41 96 0
6 -40 -118 0
9 -40 -110 0
8 -40 -79 0
8 -40 -58 0
6 -40 -51 0
9 -40 -45 0
10 -40 49 0
4 -40 62 0
8 -39 -93 0
7 -39 -51 0
6 -39 -40 0
6 -39 47 0
3 -39 59 0
3 -39 79 0
4 -38 -94 0
9 -38 -89 0
5 -38 -81 0
9 -38 -73 0
6 -38 -68 0
9 -38 -64 0
2 -38 -56 0
3 -38 -54 0
8 -38 52 0
4 -38 68 0
6 -38 82 0
6 -38 113 0
3 -37 -106 0
7 -37 -105 0
1 -37 -95 0
4 -37 -72 0
10 -37 -57 0
7 -37 -41 0
3 -37 49 0
8 -37 100 0
4 -37 103 0
8 -36 -68 0
7 -36 51 0
4 -36 71 0
2 -35 -105 0
5 -35 -101 0
10 -35 -98 0
6 -35 -89 0
10 -35 -75 0
3 -35 -70 0
8 -35 49 0
4 -35 79 0
2 -35 109 0
3 -35 112 0
3 -34 -112 0
7 -34 -94 0
2 -34 44 0
4 -34 47 0
9 -34 56 0
9 -34 73 0
7 -34 80 0
4 -33 -120 0
5 -33 -99 0
9 -33 -89 0
1 -33 -87 0
5 -33 55 0
2 -33 87 0
1 -33 97 0
2 -33 100 0
4 -33 110 0
8 -32 -106 0
5 -32 47 0
3 -32 77 0
5 -32 112 0
8 -31 -118 0
3 -31 -113 0
8 -31 -96 0
8 -31 -74 0
8 -31 51 0
8 -31 58 0
9 -31 66 0
6 -31 91 0
2 -31 103 0
10 -30 -108 0
9 -30 -81 0
4 -30 -73 0
7 -30 68 0
10 -30 75 0
7 -30 91 0
5 -30 116 0
9 -29 -119 0
3 -29 -110 0
9 -29 -70 0
3 -29 -48 0
2 -29 -42 0
9 -29 -33 0
7 -29 53 0
4 -29 74 0
9 -29 104 0
8 -29 109 0
7 -28 -116 0
7 -28 -82 0
3 -28 -65 0
9 -28 -45 0
2 -28 -44 0
10 -28 -34 0
2 -28 -29 0
9 -28 35 0
8 -28 47 0
9 -28 56 0
7 -27 -52 0
7 -27 -37 0
6 -27 88 0
8 -26 -98 0
7 -26 -77 0
5 -26 -60 0
2 -26 -41 0
4 -26 48 0
5 -26 75 0
8 -26 105 0
8 -26 113 0
3 -25 -100 0
2 -25 -93 0
7 -25 -59 0
5 -25 -38 0
3 -25 70 0
6 -25 119 0
2 -24 -72 0
6 -24 -63 0
5 -24 -36 0
9 -24 40 0
3 -24 52 0
2 -24 85 0
2 -23 -119 0
2 -23 -82 0
3 -23 85 0
1 -22 -55 0
3 -22 -49 0
2 -22 27 0
8 -22 29 0
3 -22 30 0
9 -22 74 0
5 -22 78 0
8 -22 93 0
7 -21 -107 0
2 -21 -92 0
2 -21 -83 0
8 -21 -57 0
4 -21 -48 0
6 -21 -38 0
6 -21 -33 0
2 -21 -29 0
8 -21 25 0
7 -21 28 0
8 -21 30 0
3 -21 46 0
9 -21 60 0
4 -21 67 0
5 -21 84 0
5 -20 -114 0
7 -20 -111 0
4 -20 -110 0
7 -20 -105 0
9 -20 -103 0
4 -20 -68 0
9 -20 -46 0
2 -20 -28 0
5 -20 41 0
2 -20 62 0
3 -20 90 0
2 -20 99 0
4 -19 -48 0
2 -19 -43 0
6 -19 -42 0
1 -19 24 0
7 -19 49 0
7 -19 69 0
3 -19 86 0
6 -18 -96 0
1 -18 -81 0
7 -18 -67 0
2 -18 -40 0
2 -18 -37 0
5 -18 -26 0
8 -18 -23 0
9 -18 50 0
8 -18 71 0
7 -18 83 0
3 -18 87 0
2 -18 91 0
2 -18 109 0
9 -17 -103 0
5 -17 -80 0
9 -17 -55 0
8 -17 -40 0
8 -17 27 0
7 -17 34 0
9 -17 52 0
3 -17 69 0
8 -17 87 0
2 -17 95 0
4 -16 -107 0
2 -16 20 0
2 -16 23 0
9 -16 60 0
2 -16 62 0
9 -16 65 0
6 -16 85 0
4 -15 -95 0
4 -15 -78 0
6 -15 -66 0
1 -15 -55 0
6 -15 36 0
8 -15 40 0
6 -14 -89 0
4 -14 -82 0
7 -14 -45 0
3 -14 33 0
1 -14 104 0
8 -14 115 0
5 -13 -50 0
3 -13 -34 0
7 -13 -27 0
9 -13 15 0
1 -13 37 0
5 -13 69 0
7 -13 76 0
8 -13 77 0
4 -13 117 0
9 -12 -80 0
6 -12 -53 0
4 -12 -32 0
3 -12 -24 0
7 -12 -21 0
6 -12 -20 0
2 -12 34 0
8 -12 61 0
4 -12 74 0
8 -12 99 0
2 -11 -113 0
8 -11 -108 0
4 -11 -98 0
2 -11 -93 0
3 -11 -88 0
1 -11 -44 0
7 -11 -30 0
6 -11 -24 0
7 -11 -22 0
10 -11 43 0
7 -11 48 0
6 -10 -117 0
4 -10 -92 0
8 -10 -87 0
3 -10 -26 0
3 -10 18 0
9 -10 40 0
7 -10 42 0
9 -10 73 0
6 -10 76 0
1 -10 85 0
8 -9 -103 0
2 -9 -86 0
5 -9 -51 0
10 -9 -40 0
8 -9 -27 0
9 -9 12 0
2 -9 46 0
6 -9 50 0
3 -9 75 0
8 -9 99 0
7 -9 106 0
10 -8 -96 0
2 -8 -95 0
9 -8 -54 0
3 -8 -14 0
3 -8 20 0
6 -8 25 0
8 -8 43 0
9 -8 49 0
5 -8 71 0
5 -8 79 0
5 -8 82 0
8 -8 101 0
3 -8 112 0
7 -7 -86 0
1 -7 -81 0
2 -7 -75 0
4 -7 -70 0
9 -7 -42 0
7 -7 12 0
4 -7 24 0
7 -7 31 0
8 -7 72 0
8 -6 -94 0
6 -6 -77 0
6 -6 -72 0
7 -6 -71 0
7 -6 -69 0
3 -6 -64 0
9 -6 -27 0
6 -6 -22 0
9 -6 -16 0
9 -6 -14 0
7 -6 13 0
7 -6 22 0
2 -6 40 0
9 -6 46 0
3 -5 -113 0
9 -5 -100 0
8 -5 -98 0
7 -5 -77 0
4 -5 -66 0
3 -5 -36 0
6 -5 68 0
6 -5 85 0
8 -5 92 0
6 -5 94 0
7 -4 -108 0
2 -4 -58 0
5 -4 -49 0
4 -4 -16 0
6 -4 6 0
2 -4 61 0
2 -4 119 0
3 -4 120 0
8 -3 16 0
7 -3 49 0
9 -3 63 0
5 -2 -117 0
8 -2 -71 0
9 -2 -68 0
1 -2 -10 0
7 -2 19 0
8 -2 72 0
7 -1 -92 0
5 -1 -85 0
9 -1 -37 0
7 -1 -23 0
7 -1 56 0
8 -1 68 0
5 -1 88 0
4 1 -109 0
2 1 -62 0
6 1 29 0
9 1 63 0
7 1 88 0
5 1 104 0
5 2 -94 0
4 2 -92 0
6 2 -85 0
10 2 3 0
7 2 6 0
2 2 52 0
2 2 89 0
7 3 -49 0
4 3 -45 0
9 3 12 0
4 3 48 0
4 3 70 0
4 3 76 0
3 4 -106 0
2 4 -104 0
4 4 -85 0
9 4 -77 0
9 4 -61 0
2 4 -29 0
4 4 32 0
8 4 39 0
7 4 75 0
9 4 77 0
6 4 83 0
2 4 89 0
3 4 100 0
7 4 106 0
7 4 120 0
2 5 -113 0
5 5 -108 0
2 5 -98 0
7 5 -76 0
8 5 -60 0
7 5 -55 0
6 5 -45 0
4 5 -34 0
8 5 -32 0
7 5 29 0
2 5 51 0
2 5 57 0
6 5 60 0
5 5 81 0
5 5 90 0
9 5 120 0
6 6 -92 0
6 6 -35 0
3 6 10 0
5 6 33 0
5 6 85 0
4 6 90 0
8 6 92 0
3 6 97 0
1 7 -105 0
7 7 -95 0
8 7 -93 0
2 7 -66 0
10 7 -30 0
6 7 75 0
9 7 82 0
2 7 95 0
9 8 -98 0
10 8 -94 0
8 8 -80 0
7 8 -76 0
7 8 -43 0
4 8 -33 0
2 8 -15 0
6 8 28 0
10 8 45 0
2 8 47 0
7 8 74 0
6 8 99 0
6 9 -120 0
2 9 -92 0
5 9 -19 0
2 9 42 0
7 9 43 0
7 9 54 0
7 9 69 0
3 10 -111 0
1 10 -96 0
5 10 -94 0
5 10 -74 0
2 10 -26 0
2 10 -25 0
4 10 12 0
3 10 32 0
2 10 46 0
8 10 65 0
2 10 75 0
3 10 91 0
8 10 112 0
2 11 -81 0
10 11 -36 0
5 11 20 0
8 11 30 0
4 11 54 0
5 11 71 0
3 11 74 0
4 11 87 0
7 11 89 0
9 11 99 0
9 11 115 0
2 12 -74 0
1 12 -40 0
4 12 60 0
4 12 68 0
8 13 -67 0
10 13 -63 0
10 13 -52 0
10 13 -14 0
10 13 50 0
5 13 57 0
5 13 85 0
2 13 96 0
6 13 98 0
8 14 -100 0
3 14 -90 0
7 14 -59 0
6 14 -38 0
4 14 -36 0
9 14 97 0
4 14 113 0
5 15 -76 0
9 15 -68 0
8 15 -53 0
2 15 -17 0
2 15 -16 0
3 15 34 0
5 15 41 0
5 15 44 0
9 15 64 0
4 15 114 0
4 16 -104 0
1 16 -94 0
5 16 -87 0
6 16 -67 0
4 16 47 0
3 16 58 0
6 16 120 0
4 17 -109 0
2 17 -79 0
6 17 -40 0
7 17 -26 0
6 17 28 0
6 17 53 0
3 17 109 0
4 17 114 0
9 18 -113 0
9 18 -86 0
9 18 -73 0
3 18 -71 0
8 18 -66 0
3 18 -32 0
7 18 22 0
6 18 34 0
10 18 65 0
8 18 103 0
8 18 118 0
3 19 -117 0
3 19 -114 0
3 19 -104 0
1 19 -78 0
6 19 -71 0
6 19 -65 0
2 19 -38 0
9 19 -31 0
2 19 32 0
5 19 54 0
2 19 58 0
7 19 89 0
7 19 93 0
3 20 -95 0
3 20 -61 0
5 20 30 0
9 20 68 0
9 20 83 0
7 20 97 0
3 21 -117 0
8 21 -115 0
6 21 -109 0
2 21 -98 0
10 21 -78 0
4 21 -70 0
4 21 -60 0
6 21 -57 0
9 21 -53 0
4 21 -49 0
4 21 -33 0
7 21 46 0
6 21 50 0
6 21 83 0
9 21 105 0
6 21 107 0
2 22 -120 0
5 22 -78 0
7 22 -50 0
1 22 49 0
6 22 63 0
2 22 66 0
2 22 85 0
4 22 97 0
8 22 98 0
4 23 -91 0
6 23 -72 0
3 23 -34 0
3 23 -33 0
5 23 24 0
9 23 82 0
5 23 110 0
2 23 120 0
5 24 -110 0
6 24 -66 0
2 24 -57 0
7 24 -55 0
9 24 -40 0
7 24 40 0
6 24 79 0
3 24 110 0
1 24 116 0
3 25 -106 0
8 25 -69 0
6 25 -42 0
2 25 77 0
4 26 -81 0
6 26 -55 0
6 26 -49 0
1 26 71 0
6 26 84 0
3 26 85 0
2 26 108 0
7 27 -120 0
6 27 -118 0
9 27 -55 0
2 27 -53 0
2 27 -45 0
2 27 -43 0
4 27 28 0
5 27 35 0
9 27 50 0
8 27 56 0
7 27 62 0
4 27 89 0
4 27 112 0
8 28 -69 0
1 28 -64 0
3 28 -49 0
5 28 -33 0
6 28 43 0
5 28 65 0
5 28 67 0
9 28 96 0
3 29 -70 0
1 29 -56 0
10 30 -119 0
6 30 -109 0
7 30 -102 0
6 30 -95 0
7 30 -76 0
3 30 -71 0
8 30 -45 0
7 30 46 0
10 30 91 0
4 31 -114 0
6 31 -50 0
2 31 -44 0
5 31 -38 0
7 31 73 0
4 31 75 0
9 31 98 0
6 31 104 0
2 32 34 0
6 32 45 0
9 32 89 0
5 33 -90 0
4 33 -39 0
9 33 56 0
7 33 65 0
8 33 88 0
6 33 119 0
2 34 -117 0
4 34 -63 0
4 34 35 0
4 34 109 0
4 35 -89 0
4 35 49 0
9 36 -66 0
10 36 -60 0
9 36 47 0
6 36 73 0
3 36 94 0
8 37 -100 0
3 37 -64 0
3 37 41 0
2 37 66 0
8 37 74 0
3 37 82 0
5 37 109 0
5 37 110 0
7 38 64 0
4 38 69 0
10 38 73 0
8 38 75 0
9 38 88 0
9 38 119 0
2 39 -108 0
3 39 -89 0
8 39 -70 0
8 39 -66 0
1 39 -61 0
4 39 -59 0
9 39 -55 0
4 39 -54 0
7 39 -45 0
2 39 -40 0
7 39 59 0
10 39 72 0
2 39 73 0
6 39 101 0
9 39 116 0
6 40 74 0
8 40 87 0
7 40 105 0
8 40 107 0
10 40 120 0
7 41 -61 0
6 41 -44 0
3 41 47 0
2 41 54 0
1 42 -108 0
9 42 -99 0
6 42 -67 0
10 42 -58 0
6 42 87 0
5 43 -111 0
9 43 -76 0
7 43 81 0
7 43 118 0
7 44 -98 0
5 44 -77 0
7 44 -49 0
9 44 69 0
4 44 100 0
10 44 101 0
6 44 103 0
6 45 -110 0
7 45 -109 0
6 45 -105 0
6 45 -62 0
3 45 -58 0
5 45 81 0
2 45 92 0
2 46 -101 0
2 46 -65 0
10 46 61 0
1 46 69 0
8 46 78 0
6 46 88 0
4 47 -88 0
10 47 -78 0
6 47 -55 0
2 47 54 0
5 47 61 0
6 47 92 0
7 47 94 0
9 48 -117 0
5 48 -93 0
5 48 -74 0
6 48 -68 0
1 48 -61 0
9 48 100 0
3 48 116 0
9 48 117 0
3 49 -108 0
3 49 -99 0
5 49 -96 0
8 49 72 0
9 49 85 0
10 49 91 0
4 49 92 0
2 49 101 0
5 49 112 0
5 49 117 0
2 50 -104 0
5 50 -101 0
5 50 -63 0
3 50 65 0
4 50 80 0
10 50 91 0
5 50 95 0
3 50 108 0
6 50 119 0
6 51 -107 0
8 51 -105 0
2 51 -90 0
4 51 74 0
7 52 -70 0
6 52 56 0
7 52 62 0
2 52 66 0
6 52 117 0
6 53 -112 0
4 53 -110 0
5 53 -64 0
9 53 -61 0
6 54 -74 0
9 54 70 0
6 54 98 0
4 54 105 0
9 54 108 0
9 55 -94 0
5 55 -70 0
4 55 105 0
4 55 109 0
6 56 -119 0
8 56 -110 0
8 56 -102 0
8 56 -69 0
2 56 59 0
8 56 95 0
3 56 107 0
4 56 111 0
4 57 -110 0
9 57 -105 0
2 57 -69 0
5 57 -66 0
2 57 80 0
8 57 84 0
10 57 101 0
9 58 -97 0
9 58 -89 0
6 59 -65 0
5 59 64 0
3 60 -96 0
10 60 -80 0
3 60 -63 0
8 60 79 0
9 60 90 0
9 60 100 0
2 60 107 0
8 61 -118 0
8 61 -115 0
6 61 -107 0
2 61 82 0
3 61 99 0
2 61 102 0
10 61 115 0
10 62 -112 0
9 62 -64 0
2 62 67 0
8 62 68 0
3 62 70 0
5 62 120 0
2 63 -118 0
2 63 81 0
6 63 96 0
6 64 -116 0
3 64 -101 0
4 64 -89 0
5 64 -78 0
1 64 -70 0
3 64 71 0
10 64 77 0
5 64 109 0
5 65 -116 0
10 65 -76 0
8 65 -74 0
3 65 72 0
9 65 76 0
7 65 89 0
4 66 -104 0
7 66 74 0
5 66 86 0
10 68 -78 0
9 68 99 0
6 69 -107 0
2 69 -78 0
9 69 78 0
6 69 100 0
1 69 118 0
9 70 -108 0
4 70 78 0
3 70 79 0
4 70 103 0
5 71 -107 0
4 71 -100 0
10 72 -83 0
1 72 -79 0
6 72 -74 0
4 72 80 0
5 72 99 0
6 73 -116 0
6 73 -93 0
5 73 -80 0
2 73 85 0
2 73 94 0
5 74 -89 0
8 74 -86 0
4 74 -80 0
4 74 95 0
5 74 111 0
8 75 -119 0
2 75 -100 0
9 75 83 0
7 76 -116 0
9 76 -96 0
6 76 79 0
8 77 -105 0
8 77 -88 0
2 77 -81 0
8 77 86 0
7 77 90 0
5 77 98 0
2 77 99 0
2 77 108 0
9 77 113 0
5 77 120 0
1 78 -120 0
9 78 -108 0
9 78 -101 0
4 78 -98 0
5 78 -90 0
6 78 106 0
10 79 -82 0
9 79 102 0
6 80 -119 0
1 80 -112 0
4 80 -111 0
5 80 -105 0
4 80 87 0
7 80 93 0
9 81 -113 0
2 81 -108 0
8 81 90 0
8 81 92 0
8 81 110 0
7 81 113 0
4 82 -84 0
6 82 88 0
5 83 119 0
5 84 -104 0
4 84 85 0
2 85 108 0
9 85 111 0
5 86 -98 0
3 87 -106 0
8 87 111 0
9 87 113 0
3 88 -102 0
8 88 -100 0
8 88 96 0
6 88 98 0
2 89 -114 0
4 89 117 0
6 90 110 0
2 90 113 0
9 91 -104 0
6 91 -92 0
5 91 95 0
4 91 111 0
10 92 -97 0
2 94 103 0
3 94 106 0
1 95 -108 0
9 95 -96 0
10 96 -111 0
8 96 -101 0
6 96 108 0
4 97 -118 0
4 97 -113 0
2 97 -106 0
7 98 -102 0
8 99 -103 0
3 100 -112 0
6 101 102 0
3 101 110 0
4 101 112 0
4 101 120 0
2 102 -120 0
6 102 -119 0
2 104 115 0
9 105 -118 0
3 105 -113 0
3 105 114 0
3 106 107 0
8 107 -108 0
4 107 108 0
2 107 115 0
4 108 114 0
8 109 -115 0
5 110 -120 0
3 110 -117 0
9 114 118 0
6 119 -120 0
